NAME : 	X-n384-k52	
COMMENT : 	"Generated by Uchoa, Pecin, Pessoa, Poggi, Subramanian, and Vidal (2013)"	
TYPE : 	CVRP	
DIMENSION : 	5	
EDGE_WEIGHT_TYPE : 	EUC_2D	
CAPACITY : 	564	
NODE_COORD_SECTION		
1	51	570
2	691	985
3	66	119
4	502	415
5	434	289
DEMAND_SECTION		
1	0	
2	83	
3	65	
4	92	
5	73	
DEPOT_SECTION	
	1
	-1
EOF	
